set nusos:= 1 2 3 4 5 6 7 8;
set centr:= 1 2 6 7;
set links:=
(1,2)
(1,3)
(1,7)
(2,3)
(2,4)
(2,5)
(2,6)
(3,4)
(3,6)
(3,7)
(3,8)
(4,5)
(4,8)
(5,6)
(5,7)
(6,8);

set origens:= 1 2;
set destins:= 6 7;

set odpair:=
(1,6)
(1,7)
(2,6)
(2,7);

param g:=
1 6 40
1 7 80
2 6 60
2 7 20;

param c:=
1 2 4
1 3 3
1 7 3
2 3 5
2 4 4
2 5 1
2 6 4
3 4 5
3 6 3
3 7 3
3 8 3
4 5 3
4 8 1
5 6 5
5 7 4
6 8 2;

param d:=
1 2 1
1 3 3
1 7 5
2 3 5
2 4 5
2 5 1
2 6 3
3 4 1
3 6 1
3 7 3
3 8 3
4 5 1
4 8 4
5 6 4
5 7 1
6 8 3;